200
1000
209
208
208
207
207
206
206
205
204
203
202
201
200
200
200
199
197
197
197
196
195
195
193
192
190
190
188
188
186
186
186
185
184
184
184
184
183
181
177
177
173
172
172
170
169
167
166
164
163
159
156
156
156
155
154
154
153
153
152
152
152
152
151
146
145
145
145
143
143
142
141
138
138
138
137
137
136
135
134
133
132
132
131
130
130
129
127
127
126
126
124
124
124
122
120
120
119
117
116
110
108
107
106
103
102
98
97
97
95
94
93
93
93
92
92
89
88
88
85
85
85
84
80
79
78
77
76
76
75
74
74
74
74
73
72
71
71
69
68
67
66
65
65
65
65
65
64
63
63
60
59
55
53
52
52
52
51
49
47
47
47
46
45
44
44
44
43
42
42
40
40
40
38
37
36
35
35
35
34
33
31
28
27
27
26
24
24
24
24
21
19
18
17
16
15
14
13
13
13
13
